objective value:                                10980
t_x_0                                               1 	(obj:16)
t_x_2                                               1 	(obj:14)
t_x_6                                               1 	(obj:55)
t_x_7                                               1 	(obj:43)
t_x_9                                               1 	(obj:25)
t_x_10                                              1 	(obj:49)
t_x_12                                              1 	(obj:54)
t_x_14                                              1 	(obj:32)
t_x_15                                              1 	(obj:12)
t_x_16                                              1 	(obj:16)
t_x_22                                              1 	(obj:11)
t_x_23                                              1 	(obj:7)
t_x_26                                              1 	(obj:33)
t_x_27                                              1 	(obj:36)
t_x_29                                              1 	(obj:2)
t_x_34                                              1 	(obj:2)
t_x_37                                              1 	(obj:45)
t_x_44                                              1 	(obj:79)
t_x_45                                              1 	(obj:16)
t_x_46                                              1 	(obj:6)
t_x_48                                              1 	(obj:26)
t_x_49                                              1 	(obj:19)
t_x_53                                              1 	(obj:22)
t_x_55                                              1 	(obj:43)
t_x_56                                              1 	(obj:56)
t_x_57                                              1 	(obj:39)
t_x_58                                              1 	(obj:9)
t_x_61                                              1 	(obj:36)
t_x_62                                              1 	(obj:55)
t_x_64                                              1 	(obj:31)
t_x_65                                              1 	(obj:0)
t_x_66                                              1 	(obj:48)
t_x_69                                              1 	(obj:3)
t_x_71                                              1 	(obj:37)
t_x_74                                              1 	(obj:7)
t_x_76                                              1 	(obj:36)
t_x_79                                              1 	(obj:10)
t_x_85                                              1 	(obj:1)
t_x_88                                              1 	(obj:14)
t_x_89                                              1 	(obj:2)
t_x_90                                              1 	(obj:28)
t_x_91                                              1 	(obj:13)
t_x_92                                              1 	(obj:20)
t_x_98                                              1 	(obj:21)
t_x_100                                             1 	(obj:48)
t_x_105                                             1 	(obj:10)
t_x_106                                             1 	(obj:9)
t_x_115                                             1 	(obj:4)
t_x_120                                             1 	(obj:23)
t_x_125                                             1 	(obj:12)
t_x_126                                             1 	(obj:2)
t_x_135                                             1 	(obj:19)
t_x_137                                             1 	(obj:1)
t_x_138                                             1 	(obj:7)
t_x_144                                             1 	(obj:8)
t_x_147                                             1 	(obj:31)
t_x_150                                             1 	(obj:13)
t_x_156                                             1 	(obj:38)
t_x_160                                             1 	(obj:11)
t_x_161                                             1 	(obj:26)
t_x_162                                             1 	(obj:17)
t_x_170                                             1 	(obj:26)
t_x_171                                             1 	(obj:5)
t_x_180                                             1 	(obj:56)
t_x_181                                             1 	(obj:19)
t_x_186                                             1 	(obj:1)
t_x_188                                             1 	(obj:3)
t_x_192                                             1 	(obj:40)
t_x_194                                             1 	(obj:7)
t_x_195                                             1 	(obj:32)
t_x_198                                             1 	(obj:7)
t_x_205                                             1 	(obj:20)
t_x_208                                             1 	(obj:6)
t_x_210                                             1 	(obj:5)
t_x_211                                             1 	(obj:45)
t_x_213                                             1 	(obj:22)
t_x_214                                             1 	(obj:19)
t_x_216                                             1 	(obj:12)
t_x_218                                             1 	(obj:18)
t_x_219                                             1 	(obj:25)
t_x_223                                             1 	(obj:35)
t_x_225                                             1 	(obj:31)
t_x_227                                             1 	(obj:25)
t_x_229                                             1 	(obj:34)
t_x_234                                             1 	(obj:12)
t_x_235                                             1 	(obj:16)
t_x_240                                             1 	(obj:19)
t_x_241                                             1 	(obj:26)
t_x_242                                             1 	(obj:2)
t_x_255                                             1 	(obj:19)
t_x_263                                             1 	(obj:9)
t_x_264                                             1 	(obj:6)
t_x_267                                             1 	(obj:6)
t_x_269                                             1 	(obj:28)
t_x_272                                             1 	(obj:8)
t_x_273                                             1 	(obj:17)
t_x_275                                             1 	(obj:11)
t_x_276                                             1 	(obj:5)
t_x_277                                             1 	(obj:14)
t_x_283                                             1 	(obj:23)
t_x_290                                             1 	(obj:7)
t_x_291                                             1 	(obj:6)
t_x_292                                             1 	(obj:15)
t_x_295                                             1 	(obj:36)
t_x_299                                             1 	(obj:8)
t_x_300                                             1 	(obj:21)
t_x_307                                             1 	(obj:35)
t_x_316                                             1 	(obj:33)
t_x_318                                             1 	(obj:2)
t_x_322                                             1 	(obj:12)
t_x_325                                             1 	(obj:4)
t_x_333                                             1 	(obj:18)
t_x_348                                             1 	(obj:6)
t_x_349                                             1 	(obj:36)
t_x_353                                             1 	(obj:13)
t_x_355                                             1 	(obj:37)
t_x_358                                             1 	(obj:18)
t_x_361                                             1 	(obj:15)
t_x_363                                             1 	(obj:61)
t_x_372                                             1 	(obj:25)
t_x_373                                             1 	(obj:15)
t_x_375                                             1 	(obj:33)
t_x_379                                             1 	(obj:3)
t_x_381                                             1 	(obj:8)
t_x_386                                             1 	(obj:1)
t_x_390                                             1 	(obj:21)
t_x_391                                             1 	(obj:4)
t_x_395                                             1 	(obj:26)
t_x_398                                             1 	(obj:6)
t_x_400                                             1 	(obj:17)
t_x_401                                             1 	(obj:45)
t_x_402                                             1 	(obj:54)
t_x_403                                             1 	(obj:31)
t_x_406                                             1 	(obj:2)
t_x_411                                             1 	(obj:16)
t_x_412                                             1 	(obj:39)
t_x_414                                             1 	(obj:9)
t_x_416                                             1 	(obj:7)
t_x_420                                             1 	(obj:5)
t_x_421                                             1 	(obj:29)
t_x_426                                             1 	(obj:42)
t_x_429                                             1 	(obj:15)
t_x_434                                             1 	(obj:8)
t_x_440                                             1 	(obj:14)
t_x_443                                             1 	(obj:2)
t_x_450                                             1 	(obj:35)
t_x_464                                             1 	(obj:3)
t_x_465                                             1 	(obj:23)
t_x_468                                             1 	(obj:14)
t_x_474                                             1 	(obj:15)
t_x_477                                             1 	(obj:11)
t_x_478                                             1 	(obj:16)
t_x_479                                             1 	(obj:31)
t_x_483                                             1 	(obj:0)
t_x_484                                             1 	(obj:5)
t_x_488                                             1 	(obj:6)
t_x_499                                             1 	(obj:4)
t_x_504                                             1 	(obj:3)
t_x_506                                             1 	(obj:60)
t_x_507                                             1 	(obj:26)
t_x_508                                             1 	(obj:7)
t_x_513                                             1 	(obj:6)
t_x_518                                             1 	(obj:9)
t_x_528                                             1 	(obj:6)
t_x_529                                             1 	(obj:6)
t_x_531                                             1 	(obj:21)
t_x_534                                             1 	(obj:9)
t_x_535                                             1 	(obj:57)
t_x_538                                             1 	(obj:1)
t_x_541                                             1 	(obj:32)
t_x_542                                             1 	(obj:10)
t_x_543                                             1 	(obj:1)
t_x_549                                             1 	(obj:40)
t_x_550                                             1 	(obj:9)
t_x_556                                             1 	(obj:31)
t_x_558                                             1 	(obj:0)
t_x_562                                             1 	(obj:12)
t_x_563                                             1 	(obj:24)
t_x_568                                             1 	(obj:49)
t_x_571                                             1 	(obj:0)
t_x_578                                             1 	(obj:11)
t_x_581                                             1 	(obj:24)
t_x_589                                             1 	(obj:41)
t_x_592                                             1 	(obj:37)
t_x_598                                             1 	(obj:5)
t_x_603                                             1 	(obj:2)
t_x_614                                             1 	(obj:1)
t_x_617                                             1 	(obj:72)
t_x_625                                             1 	(obj:8)
t_x_627                                             1 	(obj:18)
t_x_632                                             1 	(obj:6)
t_x_633                                             1 	(obj:2)
t_x_635                                             1 	(obj:23)
t_x_639                                             1 	(obj:29)
t_x_650                                             1 	(obj:0)
t_x_651                                             1 	(obj:23)
t_x_656                                             1 	(obj:6)
t_x_662                                             1 	(obj:14)
t_x_664                                             1 	(obj:12)
t_x_667                                             1 	(obj:1)
t_x_668                                             1 	(obj:47)
t_x_671                                             1 	(obj:8)
t_x_678                                             1 	(obj:23)
t_x_681                                             1 	(obj:21)
t_x_692                                             1 	(obj:13)
t_x_697                                             1 	(obj:38)
t_x_698                                             1 	(obj:40)
t_x_699                                             1 	(obj:10)
t_x_703                                             1 	(obj:22)
t_x_705                                             1 	(obj:16)
t_x_711                                             1 	(obj:8)
t_x_716                                             1 	(obj:20)
t_x_721                                             1 	(obj:4)
t_x_722                                             1 	(obj:14)
t_x_724                                             1 	(obj:47)
t_x_728                                             1 	(obj:36)
t_x_731                                             1 	(obj:35)
t_x_733                                             1 	(obj:18)
t_x_734                                             1 	(obj:19)
t_x_738                                             1 	(obj:5)
t_x_740                                             1 	(obj:39)
t_x_748                                             1 	(obj:13)
t_x_749                                             1 	(obj:18)
t_x_756                                             1 	(obj:11)
t_x_759                                             1 	(obj:37)
t_x_760                                             1 	(obj:4)
t_x_765                                             1 	(obj:7)
t_x_770                                             1 	(obj:0)
t_x_771                                             1 	(obj:23)
t_x_776                                             1 	(obj:28)
t_x_781                                             1 	(obj:21)
t_x_782                                             1 	(obj:9)
t_x_785                                             1 	(obj:40)
t_x_786                                             1 	(obj:4)
t_x_788                                             1 	(obj:15)
t_x_789                                             1 	(obj:43)
t_x_793                                             1 	(obj:1)
t_x_795                                             1 	(obj:18)
t_x_802                                             1 	(obj:0)
t_x_808                                             1 	(obj:4)
t_x_809                                             1 	(obj:27)
t_x_811                                             1 	(obj:21)
t_x_812                                             1 	(obj:21)
t_x_814                                             1 	(obj:10)
t_x_817                                             1 	(obj:9)
t_x_823                                             1 	(obj:33)
t_x_828                                             1 	(obj:0)
t_x_829                                             1 	(obj:22)
t_x_833                                             1 	(obj:35)
t_x_838                                             1 	(obj:20)
t_x_840                                             1 	(obj:23)
t_x_848                                             1 	(obj:2)
t_x_863                                             1 	(obj:3)
t_x_864                                             1 	(obj:30)
t_x_866                                             1 	(obj:2)
t_x_872                                             1 	(obj:30)
t_x_873                                             1 	(obj:7)
t_x_876                                             1 	(obj:13)
t_x_879                                             1 	(obj:16)
t_x_882                                             1 	(obj:11)
t_x_887                                             1 	(obj:24)
t_x_888                                             1 	(obj:8)
t_x_891                                             1 	(obj:6)
t_x_892                                             1 	(obj:9)
t_x_893                                             1 	(obj:18)
t_x_896                                             1 	(obj:10)
t_x_901                                             1 	(obj:24)
t_x_907                                             1 	(obj:0)
t_x_909                                             1 	(obj:1)
t_x_911                                             1 	(obj:26)
t_x_912                                             1 	(obj:34)
t_x_915                                             1 	(obj:6)
t_x_917                                             1 	(obj:8)
t_x_920                                             1 	(obj:19)
t_x_922                                             1 	(obj:14)
t_x_925                                             1 	(obj:18)
t_x_926                                             1 	(obj:9)
t_x_927                                             1 	(obj:2)
t_x_931                                             1 	(obj:28)
t_x_935                                             1 	(obj:12)
t_x_936                                             1 	(obj:9)
t_x_941                                             1 	(obj:5)
t_x_946                                             1 	(obj:1)
t_x_949                                             1 	(obj:40)
t_x_953                                             1 	(obj:10)
t_x_956                                             1 	(obj:29)
t_x_965                                             1 	(obj:4)
t_x_966                                             1 	(obj:35)
t_x_969                                             1 	(obj:38)
t_x_970                                             1 	(obj:36)
t_x_971                                             1 	(obj:6)
t_x_973                                             1 	(obj:8)
t_x_975                                             1 	(obj:31)
t_x_979                                             1 	(obj:7)
t_x_980                                             1 	(obj:5)
t_x_982                                             1 	(obj:6)
t_x_983                                             1 	(obj:1)
t_x_987                                             1 	(obj:33)
t_x_989                                             1 	(obj:23)
t_x_991                                             1 	(obj:13)
t_x_993                                             1 	(obj:32)
t_x_1006                                            1 	(obj:2)
t_x_1007                                            1 	(obj:16)
t_x_1019                                            1 	(obj:21)
t_x_1022                                            1 	(obj:2)
t_x_1027                                            1 	(obj:28)
t_x_1032                                            1 	(obj:12)
t_x_1034                                            1 	(obj:40)
t_x_1036                                            1 	(obj:15)
t_x_1038                                            1 	(obj:0)
t_x_1041                                            1 	(obj:19)
t_x_1046                                            1 	(obj:33)
t_x_1047                                            1 	(obj:9)
t_x_1048                                            1 	(obj:13)
t_x_1051                                            1 	(obj:34)
t_x_1052                                            1 	(obj:7)
t_x_1060                                            1 	(obj:21)
t_x_1062                                            1 	(obj:27)
t_x_1067                                            1 	(obj:30)
t_x_1068                                            1 	(obj:18)
t_x_1070                                            1 	(obj:9)
t_x_1074                                            1 	(obj:14)
t_x_1075                                            1 	(obj:11)
t_x_1080                                            1 	(obj:42)
t_x_1082                                            1 	(obj:3)
t_x_1083                                            1 	(obj:6)
t_x_1087                                            1 	(obj:35)
t_x_1090                                            1 	(obj:35)
t_x_1091                                            1 	(obj:3)
t_x_1094                                            1 	(obj:16)
t_x_1096                                            1 	(obj:17)
t_x_1100                                            1 	(obj:6)
t_x_1101                                            1 	(obj:9)
t_x_1108                                            1 	(obj:31)
t_x_1109                                            1 	(obj:21)
t_x_1110                                            1 	(obj:21)
t_x_1116                                            1 	(obj:21)
t_x_1118                                            1 	(obj:16)
t_x_1119                                            1 	(obj:14)
t_x_1122                                            1 	(obj:27)
t_x_1129                                            1 	(obj:22)
t_x_1131                                            1 	(obj:43)
t_x_1132                                            1 	(obj:12)
t_x_1133                                            1 	(obj:36)
t_x_1136                                            1 	(obj:56)
t_x_1138                                            1 	(obj:34)
t_x_1143                                            1 	(obj:27)
t_x_1144                                            1 	(obj:16)
t_x_1151                                            1 	(obj:22)
t_x_1152                                            1 	(obj:19)
t_x_1155                                            1 	(obj:28)
t_x_1156                                            1 	(obj:10)
t_x_1158                                            1 	(obj:50)
t_x_1160                                            1 	(obj:11)
t_x_1164                                            1 	(obj:11)
t_x_1167                                            1 	(obj:9)
t_x_1172                                            1 	(obj:37)
t_x_1180                                            1 	(obj:10)
t_x_1182                                            1 	(obj:14)
t_x_1187                                            1 	(obj:7)
t_x_1190                                            1 	(obj:5)
t_x_1191                                            1 	(obj:6)
t_x_1205                                            1 	(obj:6)
t_x_1206                                            1 	(obj:30)
t_x_1209                                            1 	(obj:13)
t_x_1211                                            1 	(obj:10)
t_x_1212                                            1 	(obj:27)
t_x_1213                                            1 	(obj:16)
t_x_1215                                            1 	(obj:10)
t_x_1223                                            1 	(obj:5)
t_x_1226                                            1 	(obj:3)
t_x_1230                                            1 	(obj:2)
t_x_1237                                            1 	(obj:2)
t_x_1243                                            1 	(obj:4)
t_x_1245                                            1 	(obj:21)
t_x_1250                                            1 	(obj:13)
t_x_1251                                            1 	(obj:4)
t_x_1252                                            1 	(obj:3)
t_x_1255                                            1 	(obj:57)
t_x_1258                                            1 	(obj:17)
t_x_1260                                            1 	(obj:41)
t_x_1263                                            1 	(obj:22)
t_x_1265                                            1 	(obj:42)
t_x_1267                                            1 	(obj:23)
t_x_1270                                            1 	(obj:23)
t_x_1276                                            1 	(obj:21)
t_x_1277                                            1 	(obj:5)
t_x_1278                                            1 	(obj:12)
t_x_1280                                            1 	(obj:26)
t_x_1282                                            1 	(obj:6)
t_x_1287                                            1 	(obj:3)
t_x_1289                                            1 	(obj:7)
t_x_1292                                            1 	(obj:16)
t_x_1296                                            1 	(obj:22)
t_x_1297                                            1 	(obj:9)
t_x_1301                                            1 	(obj:80)
t_x_1305                                            1 	(obj:29)
t_x_1307                                            1 	(obj:10)
t_x_1315                                            1 	(obj:20)
t_x_1318                                            1 	(obj:33)
t_x_1327                                            1 	(obj:44)
t_x_1332                                            1 	(obj:12)
t_x_1334                                            1 	(obj:18)
t_x_1336                                            1 	(obj:23)
t_x_1339                                            1 	(obj:15)
t_x_1341                                            1 	(obj:17)
t_x_1342                                            1 	(obj:19)
t_x_1344                                            1 	(obj:7)
t_x_1346                                            1 	(obj:6)
t_x_1347                                            1 	(obj:64)
t_x_1353                                            1 	(obj:15)
t_x_1355                                            1 	(obj:24)
t_x_1356                                            1 	(obj:3)
t_x_1363                                            1 	(obj:11)
t_x_1365                                            1 	(obj:2)
t_x_1366                                            1 	(obj:17)
t_x_1368                                            1 	(obj:4)
t_x_1370                                            1 	(obj:13)
t_x_1376                                            1 	(obj:16)
t_x_1381                                            1 	(obj:25)
t_x_1387                                            1 	(obj:0)
t_x_1391                                            1 	(obj:0)
t_x_1400                                            1 	(obj:10)
t_x_1403                                            1 	(obj:29)
t_x_1416                                            1 	(obj:16)
t_x_1421                                            1 	(obj:8)
t_x_1422                                            1 	(obj:3)
t_x_1423                                            1 	(obj:1)
t_x_1424                                            1 	(obj:37)
t_x_1426                                            1 	(obj:18)
t_x_1428                                            1 	(obj:8)
t_x_1435                                            1 	(obj:28)
t_x_1437                                            1 	(obj:4)
t_x_1439                                            1 	(obj:34)
t_x_1440                                            1 	(obj:17)
t_x_1442                                            1 	(obj:6)
t_x_1447                                            1 	(obj:22)
t_x_1453                                            1 	(obj:39)
t_x_1454                                            1 	(obj:2)
t_x_1456                                            1 	(obj:2)
t_x_1462                                            1 	(obj:31)
t_x_1463                                            1 	(obj:10)
t_x_1466                                            1 	(obj:33)
t_x_1467                                            1 	(obj:32)
t_x_1478                                            1 	(obj:16)
t_x_1479                                            1 	(obj:8)
t_x_1480                                            1 	(obj:10)
t_x_1482                                            1 	(obj:5)
t_x_1483                                            1 	(obj:16)
t_x_1489                                            1 	(obj:24)
t_x_1490                                            1 	(obj:1)
t_x_1491                                            1 	(obj:1)
t_x_1493                                            1 	(obj:2)
t_x_1495                                            1 	(obj:31)
t_x_1501                                            1 	(obj:13)
t_x_1502                                            1 	(obj:22)
t_x_1504                                            1 	(obj:25)
t_x_1505                                            1 	(obj:20)
t_x_1511                                            1 	(obj:33)
t_x_1514                                            1 	(obj:7)
t_x_1515                                            1 	(obj:32)
t_x_1516                                            1 	(obj:53)
t_x_1522                                            1 	(obj:1)
t_x_1525                                            1 	(obj:39)
t_x_1526                                            1 	(obj:17)
t_x_1528                                            1 	(obj:14)
t_x_1534                                            1 	(obj:44)
t_x_1535                                            1 	(obj:19)
t_x_1550                                            1 	(obj:3)
t_x_1555                                            1 	(obj:43)
t_x_1559                                            1 	(obj:25)
t_x_1562                                            1 	(obj:2)
t_x_1564                                            1 	(obj:34)
t_x_1567                                            1 	(obj:14)
t_x_1570                                            1 	(obj:3)
t_x_1577                                            1 	(obj:16)
t_x_1578                                            1 	(obj:52)
t_x_1580                                            1 	(obj:9)
t_x_1581                                            1 	(obj:1)
t_x_1587                                            1 	(obj:3)
t_x_1589                                            1 	(obj:9)
t_x_1590                                            1 	(obj:10)
t_x_1593                                            1 	(obj:14)
t_x_1595                                            1 	(obj:4)
t_x_1602                                            1 	(obj:0)
t_x_1603                                            1 	(obj:36)
t_x_1608                                            1 	(obj:8)
t_x_1609                                            1 	(obj:4)
t_x_1613                                            1 	(obj:52)
t_x_1620                                            1 	(obj:13)
t_x_1623                                            1 	(obj:7)
t_x_1639                                            1 	(obj:15)
t_x_1642                                            1 	(obj:21)
t_x_1645                                            1 	(obj:33)
t_x_1650                                            1 	(obj:8)
t_x_1653                                            1 	(obj:17)
t_x_1655                                            1 	(obj:9)
t_x_1659                                            1 	(obj:12)
t_x_1669                                            1 	(obj:23)
t_x_1673                                            1 	(obj:23)
t_x_1675                                            1 	(obj:33)
t_x_1678                                            1 	(obj:8)
t_x_1681                                            1 	(obj:6)
t_x_1684                                            1 	(obj:18)
t_x_1688                                            1 	(obj:43)
t_x_1695                                            1 	(obj:0)
t_x_1696                                            1 	(obj:5)
t_x_1699                                            1 	(obj:13)
t_x_1710                                            1 	(obj:43)
t_x_1712                                            1 	(obj:3)
t_x_1714                                            1 	(obj:18)
t_x_1715                                            1 	(obj:7)
t_x_1719                                            1 	(obj:18)
t_x_1724                                            1 	(obj:28)
t_x_1725                                            1 	(obj:9)
t_x_1727                                            1 	(obj:37)
t_x_1728                                            1 	(obj:16)
t_x_1734                                            1 	(obj:10)
t_x_1735                                            1 	(obj:11)
t_x_1736                                            1 	(obj:5)
t_x_1737                                            1 	(obj:28)
t_x_1745                                            1 	(obj:11)
t_x_1748                                            1 	(obj:3)
t_x_1749                                            1 	(obj:15)
t_x_1756                                            1 	(obj:25)
t_x_1758                                            1 	(obj:9)
t_x_1760                                            1 	(obj:9)
t_x_1761                                            1 	(obj:0)
t_x_1762                                            1 	(obj:11)
t_x_1767                                            1 	(obj:3)
t_x_1772                                            1 	(obj:85)
t_x_1779                                            1 	(obj:34)
t_x_1781                                            1 	(obj:4)
t_x_1785                                            1 	(obj:20)
t_x_1797                                            1 	(obj:7)
t_x_1798                                            1 	(obj:8)
t_x_1799                                            1 	(obj:13)
t_x_1803                                            1 	(obj:7)
t_x_1805                                            1 	(obj:5)
t_x_1808                                            1 	(obj:31)
t_x_1813                                            1 	(obj:17)
t_x_1814                                            1 	(obj:61)
t_x_1815                                            1 	(obj:13)
t_x_1817                                            1 	(obj:26)
t_x_1820                                            1 	(obj:38)
t_x_1824                                            1 	(obj:4)
t_x_1828                                            1 	(obj:5)
t_x_1830                                            1 	(obj:2)
t_x_1831                                            1 	(obj:35)
t_x_1834                                            1 	(obj:2)
t_x_1836                                            1 	(obj:7)
t_x_1838                                            1 	(obj:7)
t_x_1840                                            1 	(obj:11)
t_x_1841                                            1 	(obj:36)
t_x_1848                                            1 	(obj:17)
t_x_1849                                            1 	(obj:1)
t_x_1852                                            1 	(obj:9)
t_x_1862                                            1 	(obj:12)
t_x_1867                                            1 	(obj:7)
t_x_1872                                            1 	(obj:10)
t_x_1873                                            1 	(obj:9)
t_x_1878                                            1 	(obj:37)
t_x_1879                                            1 	(obj:74)
t_x_1884                                            1 	(obj:47)
t_x_1885                                            1 	(obj:59)
t_x_1886                                            1 	(obj:9)
t_x_1887                                            1 	(obj:4)
t_x_1888                                            1 	(obj:5)
t_x_1902                                            1 	(obj:39)
t_x_1909                                            1 	(obj:35)
t_x_1912                                            1 	(obj:49)
t_x_1914                                            1 	(obj:2)
t_x_1926                                            1 	(obj:15)
t_x_1929                                            1 	(obj:11)
t_x_1934                                            1 	(obj:8)
t_x_1936                                            1 	(obj:11)
t_x_1937                                            1 	(obj:8)
t_x_1939                                            1 	(obj:34)
t_x_1940                                            1 	(obj:27)
t_x_1947                                            1 	(obj:13)
t_x_1948                                            1 	(obj:5)
t_x_1952                                            1 	(obj:16)
t_x_1956                                            1 	(obj:15)
t_x_1962                                            1 	(obj:6)
t_x_1964                                            1 	(obj:10)
t_x_1966                                            1 	(obj:11)
t_x_1969                                            1 	(obj:15)
t_x_1972                                            1 	(obj:7)
t_x_1973                                            1 	(obj:15)
t_x_1974                                            1 	(obj:10)
t_x_1978                                            1 	(obj:39)
t_x_1979                                            1 	(obj:39)
t_x_1981                                            1 	(obj:6)
t_x_1984                                            1 	(obj:13)
t_x_1989                                            1 	(obj:0)
t_x_1991                                            1 	(obj:30)
t_x_1997                                            1 	(obj:4)
